[[ 0 -1 -1 -1  0  0  0]
 [ 1  0  0  0 -1  0  0]
 [ 1  0  0 -1 -1 -1  0]
 [ 1  0  1  0  0 -1  0]
 [ 0  1  1  0  0  0 -1]
 [ 0  0  1  1  0  0 -1]
 [ 0  0  0  0  1  1  0]]
min:4x25 4x13 6x12 6x21 9x76 3x63 4x31 9x67 3x43 1x35 1x41 3x34 4x75 3x36 4x64 1x53 4x46 4x52 4x57 1x14 ;
 x12 - x21  x13 - x31  x14 - x41 = 10;
 x12 - x21  x25 - x52 = 0;
 x13 - x31  x34 - x43  x35 - x53  x36 - x63 = 0;
 x14 - x41  x34 - x43  x46 - x64 = 0;
 x25 - x52  x35 - x53  x57 - x75 = 0;
 x36 - x63  x46 - x64  x67 - x76 = 0;
 x57 - x75  x67 - x76 = 10;

